Gurobi 12.0.1:   lim:time = 500
  mip:bestbound = 1
Set parameter LogToConsole to value 1
  tech:outlev = 1
Set parameter InfUnbdInfo to value 1
Gurobi Optimizer version 12.0.1 build v12.0.1rc0 (win64 - Windows 11.0 (26100.2))

CPU model: Intel(R) Core(TM) i7-10700 CPU @ 2.90GHz, instruction set [SSE2|AVX|AVX2]
Thread count: 8 physical cores, 16 logical processors, using up to 16 threads

Non-default parameters:
TimeLimit  500
InfUnbdInfo  1

Optimize a model with 315 rows, 546 columns and 2785 nonzeros
Model fingerprint: 0xfe5d857b
Model has 1 quadratic objective term
Model has 5 quadratic constraints
Variable types: 25 continuous, 521 integer (0 binary)
Coefficient statistics:
  Matrix range     [1e+00, 1e+05]
  QMatrix range    [1e+00, 1e+00]
  QLMatrix range   [1e+00, 2e+01]
  Objective range  [7e+00, 4e+02]
  QObjective range [2e+00, 2e+00]
  Bounds range     [1e+00, 9e+01]
  RHS range        [1e+00, 1e+05]
  QRHS range       [1e+02, 1e+02]
Presolve removed 25 rows and 54 columns
Presolve time: 0.02s
Presolved: 473 rows, 672 columns, 3480 nonzeros
Variable types: 15 continuous, 657 integer (657 binary)
Found heuristic solution: objective 1675.9800000

Root relaxation: objective 5.938297e+02, 51 iterations, 0.00 seconds (0.00 work units)

    Nodes    |    Current Node    |     Objective Bounds      |     Work
 Expl Unexpl |  Obj  Depth IntInf | Incumbent    BestBd   Gap | It/Node Time

     0     0  593.82967    0   26 1675.98000  593.82967  64.6%     -    0s
H    0     0                    1180.8600000  593.82967  49.7%     -    0s
H    0     0                    1051.2300000  593.82967  43.5%     -    0s
H    0     0                    1021.1400000  593.82967  41.8%     -    0s
H    0     0                    1008.6900000  593.82967  41.1%     -    0s
H    0     0                     864.0900000  593.82967  31.3%     -    0s
     0     0  615.78277    0   20  864.09000  615.78277  28.7%     -    0s
     0     0  625.80012    0   24  864.09000  625.80012  27.6%     -    0s
     0     0  625.98000    0   16  864.09000  625.98000  27.6%     -    0s
     0     0  625.98000    0   16  864.09000  625.98000  27.6%     -    0s
     0     0  625.98000    0   16  864.09000  625.98000  27.6%     -    0s
H    0     0                     855.3300000  625.98000  26.8%     -    0s
     0     0  625.98000    0   16  855.33000  625.98000  26.8%     -    0s
     0     0  625.98000    0   16  855.33000  625.98000  26.8%     -    0s
     0     2  625.98000    0   16  855.33000  625.98000  26.8%     -    0s
H   31    49                     839.4600000  626.01462  25.4%  15.1    0s
*  329   198              27     800.6400000  635.08679  20.7%   7.2    0s
*  459   218              12     760.6200000  657.74993  13.5%   7.3    0s

Cutting planes:
  Learned: 7
  Gomory: 4
  Cover: 3
  Implied bound: 21
  MIR: 6
  Inf proof: 9
  Zero half: 5
  RLT: 26

Explored 1174 nodes (8156 simplex iterations) in 0.24 seconds (0.24 work units)
Thread count was 16 (of 16 available processors)

Solution count 10: 760.62 800.64 839.46 ... 1675.98

Optimal solution found (tolerance 1.00e-04)
Best objective 7.606200000000e+02, best bound 7.606200000000e+02, gap 0.0000%

AMPL MP initial flat model has 546 variables (0 integer, 521 binary);
Objectives: 1 quadratic; 
Constraints:  315 linear; 5 quadratic;

AMPL MP final model has 546 variables (0 integer, 521 binary);
Objectives: 1 quadratic; 
Constraints:  315 linear; 5 quadratic;


-----RESULTS INFO-----
running_time:  0.297
TC.best_bound:  760.62
TC:  760.6200000000001
MIP Gap (%):  1.4946601157163368e-14
=== Vehicle Routes ===
Vehicle 1: 0 → 18
Vehicle 2: 0 → 18
Vehicle 3: 0 → 8
Vehicle 3: 1 → 16
Vehicle 3: 2 → 1
Vehicle 3: 3 → 12
Vehicle 3: 4 → 18
Vehicle 3: 8 → 14
Vehicle 3: 12 → 4
Vehicle 3: 14 → 2
Vehicle 3: 16 → 3

=== Full Vehicle Routes ===
Vehicle 1: 0 → 0 (0<100)
Vehicle 2: 0 → 0 (0<100)
Vehicle 3: 0 → 8 → 14 → 2 → 1 → 16 → 3 → 12 → 4 → 0 (89<100)
Arc used by MRT line: y variables:
Customer assigment to PL: u variables:
5 14
6 16
7 12
Node is served by regular vehicle: g variables:
1
2
3
4
8
16
12
14
Customer assigment to Home delivery: gm variables:
1
2
3
4
8
Node total demands: ntd variables:
1 8 1
2 6 1
3 2 1
4 8 1
7 0 0
8 24 1
15 0 0
16 1 1
17 0 0
9 0 0
10 0 0
11 0 0
12 24 1
13 0 0
14 16 1
Customer's demand delivered to PL: l variables:
5
6
7
